Input: forum-13.prec25.dzn
============================================================
Total Runtime: 3.7456 seconds
Input parsing: 0.0047 seconds
Constraint building: 0.9882 seconds
MaxSAT solving: 2.0787 seconds
============================================================

Total variables: 182834
Total clauses: 383790
MaxSAT found with cost: 0
NO SOLUTION FOUND
